60 60
6 9
24 60
2 32
29 12
18 28
8 30
1 34
24 58
13 55
5 47
25 17
19 3
10 5
30 38
9 40
15 13
29 49
27 23
17 2
21 1
9 35
22 43
3 59
23 26
30 33
8 16
18 44
7 21
17 45
27 7
16 41
14 22
12 56
4 18
19 31
7 27
15 46
26 20
11 54
12 52
5 50
3 4
11 25
25 6
23 36
13 15
10 19
22 37
2 57
20 11
26 14
20 48
21 24
28 39
16 51
4 42
6 8
1 10
28 29
14 53
